6000
1 0 1 0 0 1 0 0 0 0 0 1 0 0 0 0 0 0 1 0 
2 18 11 5 18 18 0 2 2 2 11 18 18 18 18 0 0 2 5 5 5 11 5 11 18 11 11 2 2 2 0 18 18 18 5 18 18 0 0 0 0 11 2 18 11 5 18 18 0 18 2 2 2 2 2 5 2 5 5 5 11 11 11 11 11 11 0 0 18 18 18 18 18 18 18 18 18 18 18 18 
